c This file is generated by oracV2cnf
c Generated on Mon Nov  9 21:38:09 2015
p cnf 196 550
1 44 0
-1 -44 0
2 45 0
-2 -45 0
4 46 0
-4 -46 0
6 47 0
-6 -47 0
8 48 0
-8 -48 0
10 49 0
-10 -49 0
12 50 0
-12 -50 0
14 51 0
-14 -51 0
16 52 0
-16 -52 0
18 53 0
-18 -53 0
20 54 0
-20 -54 0
22 55 0
-22 -55 0
24 56 0
-24 -56 0
26 57 0
-26 -57 0
28 58 0
-28 -58 0
30 59 0
-30 -59 0
32 60 0
-32 -60 0
34 61 0
-34 -61 0
-44 -2 -62 0
44 62 0
2 62 0
3 45 63 0
-3 -63 0
-45 -63 0
5 45 64 0
-5 -64 0
-45 -64 0
-46 -6 -65 0
46 65 0
6 65 0
-48 -10 -66 0
48 66 0
10 66 0
-50 -14 -67 0
50 67 0
14 67 0
-52 -18 -68 0
52 68 0
18 68 0
-54 -22 -69 0
54 69 0
22 69 0
-56 -26 -70 0
56 70 0
26 70 0
-58 -30 -71 0
58 71 0
30 71 0
-60 -34 -72 0
60 72 0
34 72 0
7 47 73 0
-7 -73 0
-47 -73 0
9 47 74 0
-9 -74 0
-47 -74 0
11 49 75 0
-11 -75 0
-49 -75 0
13 49 76 0
-13 -76 0
-49 -76 0
15 51 77 0
-15 -77 0
-51 -77 0
17 51 78 0
-17 -78 0
-51 -78 0
19 53 79 0
-19 -79 0
-53 -79 0
21 53 80 0
-21 -80 0
-53 -80 0
23 55 81 0
-23 -81 0
-55 -81 0
25 55 82 0
-25 -82 0
-55 -82 0
27 57 83 0
-27 -83 0
-57 -83 0
29 57 84 0
-29 -84 0
-57 -84 0
31 59 85 0
-31 -85 0
-59 -85 0
33 59 86 0
-33 -86 0
-59 -86 0
35 61 87 0
-35 -87 0
-61 -87 0
36 61 88 0
-36 -88 0
-61 -88 0
-62 -65 -66 -67 -68 -69 -70 -71 -72 89 0
62 -89 0
65 -89 0
66 -89 0
67 -89 0
68 -89 0
69 -89 0
70 -89 0
71 -89 0
72 -89 0
89 90 0
-89 -90 0
89 91 0
-89 -91 0
89 37 0
-89 -37 0
-90 -62 -92 0
90 62 -92 0
90 -62 92 0
-90 62 92 0
-90 -65 -93 0
90 65 -93 0
90 -65 93 0
-90 65 93 0
-90 -66 -94 0
90 66 -94 0
90 -66 94 0
-90 66 94 0
-90 -67 -95 0
90 67 -95 0
90 -67 95 0
-90 67 95 0
-90 -68 -96 0
90 68 -96 0
90 -68 96 0
-90 68 96 0
-90 -69 -97 0
90 69 -97 0
90 -69 97 0
-90 69 97 0
-1 -91 -98 0
1 98 0
91 98 0
-90 -70 -99 0
90 70 -99 0
90 -70 99 0
-90 70 99 0
-91 -4 -100 0
91 100 0
4 100 0
-90 -71 -101 0
90 71 -101 0
90 -71 101 0
-90 71 101 0
-91 -8 -102 0
91 102 0
8 102 0
-90 -72 -103 0
90 72 -103 0
90 -72 103 0
-90 72 103 0
-91 -12 -104 0
91 104 0
12 104 0
-91 -16 -105 0
91 105 0
16 105 0
-91 -20 -106 0
91 106 0
20 106 0
-91 -24 -107 0
91 107 0
24 107 0
-91 -28 -108 0
91 108 0
28 108 0
-91 -32 -109 0
91 109 0
32 109 0
-92 -63 -110 0
92 110 0
63 110 0
-92 -64 -111 0
92 111 0
64 111 0
-93 -73 -112 0
93 112 0
73 112 0
-94 -75 -113 0
94 113 0
75 113 0
-95 -77 -114 0
95 114 0
77 114 0
-96 -79 -115 0
96 115 0
79 115 0
-97 -81 -116 0
97 116 0
81 116 0
-99 -83 -117 0
99 117 0
83 117 0
-101 -85 -118 0
101 118 0
85 118 0
-103 -87 -119 0
103 119 0
87 119 0
-93 -74 -120 0
93 120 0
74 120 0
-94 -76 -121 0
94 121 0
76 121 0
-95 -78 -122 0
95 122 0
78 122 0
-96 -80 -123 0
96 123 0
80 123 0
-97 -82 -124 0
97 124 0
82 124 0
-99 -84 -125 0
99 125 0
84 125 0
-101 -86 -126 0
101 126 0
86 126 0
-103 -88 -127 0
103 127 0
88 127 0
-110 -112 -113 -114 -115 -116 -117 -118 -119 128 0
110 -128 0
112 -128 0
113 -128 0
114 -128 0
115 -128 0
116 -128 0
117 -128 0
118 -128 0
119 -128 0
111 129 0
-111 -129 0
120 130 0
-120 -130 0
121 131 0
-121 -131 0
122 132 0
-122 -132 0
123 133 0
-123 -133 0
124 134 0
-124 -134 0
125 135 0
-125 -135 0
126 136 0
-126 -136 0
127 137 0
-127 -137 0
128 138 0
-128 -138 0
128 139 0
-128 -139 0
128 38 0
-128 -38 0
-138 -110 -140 0
138 110 -140 0
138 -110 140 0
-138 110 140 0
-138 -112 -141 0
138 112 -141 0
138 -112 141 0
-138 112 141 0
-138 -113 -142 0
138 113 -142 0
138 -113 142 0
-138 113 142 0
-138 -114 -143 0
138 114 -143 0
138 -114 143 0
-138 114 143 0
-3 -139 -144 0
3 144 0
139 144 0
-138 -115 -145 0
138 115 -145 0
138 -115 145 0
-138 115 145 0
-139 -7 -146 0
139 146 0
7 146 0
-138 -116 -147 0
138 116 -147 0
138 -116 147 0
-138 116 147 0
-139 -11 -148 0
139 148 0
11 148 0
-138 -117 -149 0
138 117 -149 0
138 -117 149 0
-138 117 149 0
-139 -15 -150 0
139 150 0
15 150 0
-138 -118 -151 0
138 118 -151 0
138 -118 151 0
-138 118 151 0
-139 -19 -152 0
139 152 0
19 152 0
-138 -119 -153 0
138 119 -153 0
138 -119 153 0
-138 119 153 0
-139 -23 -154 0
139 154 0
23 154 0
-139 -27 -155 0
139 155 0
27 155 0
-139 -31 -156 0
139 156 0
31 156 0
-139 -35 -157 0
139 157 0
35 157 0
-140 -129 -158 0
140 158 0
129 158 0
-141 -130 -159 0
141 159 0
130 159 0
-142 -131 -160 0
142 160 0
131 160 0
-143 -132 -161 0
143 161 0
132 161 0
-145 -133 -162 0
145 162 0
133 162 0
-147 -134 -163 0
147 163 0
134 163 0
-149 -135 -164 0
149 164 0
135 164 0
-151 -136 -165 0
151 165 0
136 165 0
-153 -137 -166 0
153 166 0
137 166 0
-158 -159 -160 -161 -162 -163 -164 -165 -166 167 0
158 -167 0
159 -167 0
160 -167 0
161 -167 0
162 -167 0
163 -167 0
164 -167 0
165 -167 0
166 -167 0
167 168 0
-167 -168 0
167 39 0
-167 -39 0
-5 -168 -169 0
5 169 0
168 169 0
-168 -9 -170 0
168 170 0
9 170 0
-168 -13 -171 0
168 171 0
13 171 0
-168 -17 -172 0
168 172 0
17 172 0
-168 -21 -173 0
168 173 0
21 173 0
-168 -25 -174 0
168 174 0
25 174 0
-168 -29 -175 0
168 175 0
29 175 0
-168 -33 -176 0
168 176 0
33 176 0
-168 -36 -177 0
168 177 0
36 177 0
-2 -98 -144 -169 -178 0
2 178 0
98 178 0
144 178 0
169 178 0
-100 -146 -170 -6 -179 0
100 179 0
146 179 0
170 179 0
6 179 0
-102 -148 -171 -10 -180 0
102 180 0
148 180 0
171 180 0
10 180 0
-104 -150 -172 -14 -181 0
104 181 0
150 181 0
172 181 0
14 181 0
-105 -152 -173 -18 -182 0
105 182 0
152 182 0
173 182 0
18 182 0
-106 -154 -174 -22 -183 0
106 183 0
154 183 0
174 183 0
22 183 0
-107 -155 -175 -26 -184 0
107 184 0
155 184 0
175 184 0
26 184 0
-108 -156 -176 -30 -185 0
108 185 0
156 185 0
176 185 0
30 185 0
-109 -157 -177 -34 -186 0
109 186 0
157 186 0
177 186 0
34 186 0
178 187 0
-178 -187 0
-179 -180 -181 -182 -183 -184 -185 -186 188 0
179 -188 0
180 -188 0
181 -188 0
182 -188 0
183 -188 0
184 -188 0
185 -188 0
186 -188 0
181 189 0
-181 -189 0
183 190 0
-183 -190 0
184 191 0
-184 -191 0
185 192 0
-185 -192 0
187 188 40 0
-187 -40 0
-188 -40 0
-180 -189 -193 0
180 193 0
189 193 0
-180 -181 -190 -182 -194 0
180 194 0
181 194 0
190 194 0
182 194 0
-182 -181 -191 -195 0
182 195 0
181 195 0
191 195 0
-180 -181 -184 -192 -196 0
180 196 0
181 196 0
184 196 0
192 196 0
-179 -180 -193 -182 -41 0
179 41 0
180 41 0
193 41 0
182 41 0
-179 -180 -194 -195 -42 0
179 42 0
180 42 0
194 42 0
195 42 0
-179 -193 -194 -196 -43 0
179 43 0
193 43 0
194 43 0
196 43 0
c assign values for PIs:
-1 0
2 0
3 0
-4 0
5 0
-6 0
7 0
8 0
9 0
10 0
-11 0
12 0
-13 0
14 0
15 0
-16 0
17 0
18 0
19 0
20 0
-21 0
22 0
-23 0
-24 0
25 0
26 0
27 0
28 0
29 0
30 0
-31 0
-32 0
-33 0
-34 0
35 0
36 0
